p wcnf 123 148 149 
1 64 34 0 
1 15 121 0 
1 -5 -71 0 
1 -77 -46 0 
1 -34 -105 0 
1 -75 122 0 
1 -89 -14 0 
1 54 -50 0 
1 101 -109 0 
1 32 -120 0 
1 10 80 0 
1 104 -113 0 
1 -46 -3 0 
1 46 78 0 
1 -90 -57 0 
1 -64 53 0 
1 -65 -123 0 
1 115 14 0 
1 24 109 0 
1 116 67 0 
1 34 1 0 
1 115 89 0 
1 -69 -108 0 
1 -101 116 0 
1 -40 112 0 
1 -95 -35 0 
1 67 -64 0 
1 -16 37 0 
1 -69 34 0 
1 -122 107 0 
1 11 61 0 
1 -34 -21 0 
1 96 34 0 
1 -8 -2 0 
1 29 -70 0 
1 -43 64 0 
1 15 18 0 
1 -107 10 0 
1 57 -46 0 
1 -41 -111 0 
1 -79 -34 0 
1 -96 -28 0 
1 7 122 0 
1 -58 7 0 
1 -77 -113 0 
1 53 -102 0 
1 34 -84 0 
1 107 -102 0 
1 -120 56 0 
1 -109 88 0 
1 -34 49 0 
1 56 -42 0 
1 -120 50 0 
1 -66 104 0 
1 87 102 0 
1 99 104 0 
1 47 -107 0 
1 -40 19 0 
1 -115 123 0 
1 102 -112 0 
1 34 37 0 
1 37 -5 0 
1 -91 -18 0 
1 -109 -21 0 
1 -119 106 0 
1 -87 -14 0 
1 44 5 0 
1 -106 -8 0 
1 -46 84 0 
1 113 -85 0 
1 -64 12 0 
1 -77 43 0 
1 -52 -39 0 
1 -36 109 0 
1 -2 4 0 
1 69 91 0 
1 -97 15 0 
1 115 91 0 
1 -80 -111 0 
1 -54 -41 0 
1 -27 43 0 
1 -57 -67 0 
1 -52 4 0 
1 113 -84 0 
1 -106 17 0 
1 -28 8 0 
1 -30 19 0 
1 -20 25 0 
1 74 -59 0 
1 -96 -56 0 
1 58 -20 0 
1 -113 -43 0 
1 42 55 0 
1 -49 10 0 
1 107 121 0 
1 -3 -40 0 
1 -45 -76 0 
1 -84 -24 0 
1 -104 49 0 
1 -28 99 0 
1 41 51 0 
1 38 21 0 
1 90 -44 0 
1 -85 75 0 
1 -89 51 0 
1 24 -110 0 
1 -27 -114 0 
1 -45 -114 0 
1 19 -13 0 
1 114 77 0 
1 92 -88 0 
1 79 9 0 
1 -103 94 0 
1 -71 70 0 
1 35 49 0 
1 -37 46 0 
1 79 -96 0 
1 -88 24 0 
1 -13 -6 0 
1 19 -86 0 
1 95 67 0 
1 -51 41 0 
1 69 40 0 
1 123 -118 0 
1 -65 66 0 
1 -56 -69 0 
1 1 98 0 
1 31 -19 0 
1 -53 -100 0 
1 -121 -47 0 
1 118 -111 0 
1 108 -87 0 
1 -119 83 0 
1 74 8 0 
1 122 116 0 
1 48 -80 0 
1 3 55 0 
1 86 121 0 
1 81 49 0 
1 18 72 0 
1 2 19 0 
1 120 -14 0 
1 104 -33 0 
1 -16 -33 0 
1 -27 -85 0 
1 60 15 0 
1 48 84 0 
1 16 -61 0 
